DIMENSION : 20
CAPACITY : 90
NODE_COORD_SECTION
1 13 7
2 15 13
3 17 3
4 12 11
5 9 1
6 18 11
7 10 17
8 1 16
9 3 12
10 10 12
11 11 16
12 9 15
13 8 11
14 10 14
15 15 13
16 12 17
17 18 11
18 3 19
19 3 8
20 10 15
DEMAND_SECTION 
1 13
2 20
3 21
4 12
5 31
6 27
7 19
8 20
9 21
10 14
11 9
12 10
13 36
14 13
15 5
16 19
17 10
18 27
19 16
20 14
